% Instancia problemática tipo: TOPOLOGIA_IMPOSIBLE
% Razón: Nodos críticos aislados sin conectividad
% Demanda total: 4804.66
% Suministro total: 5765.58
% Factor holgura: 1.2

nP = 3;
nT = 5;
nC1 = 6;
nC2 = 8;
nA = 50;
nD = 3;

arc_from = [3, 3, 1, 2, 1, 8, 5, 7, 6, 4, 6, 8, 4, 5, 8, 7, 7, 5, 5, 4, 9, 9, 9, 9, 9, 10, 10, 10, 10, 10, 11, 11, 11, 11, 11, 12, 12, 12, 12, 12, 13, 13, 13, 13, 13, 14, 14, 14, 14, 14];
arc_to = [8, 5, 6, 7, 4, 11, 14, 9, 14, 13, 10, 10, 10, 12, 13, 13, 11, 9, 10, 12, 15, 16, 17, 18, 22, 15, 16, 17, 18, 22, 15, 16, 17, 18, 22, 15, 16, 17, 18, 22, 15, 16, 17, 18, 22, 15, 16, 17, 18, 22];

supply = [1921.86, 1921.86, 1921.86, 0, 0, 0, 0, 0, 0, 0, 0, 0, 0, 0, 0, 0, 0, 0, 0, 0, 0, 0];
demand = [0, 0, 0, 0, 0, 0, 0, 0, 381.07, 369.22, 218.46, 284.72, 255.34, 200.71, 454.22, 427.42, 352.39, 448.25, 410.34, 385.54, 301.93, 315.05];

max_capacity = [795, 1414, 3181];

install_cost = array2d(1..nA, 1..nD, [
  20, 24, 32,
  50, 62, 78,
  20, 24, 32,
  50, 62, 78,
  20, 24, 32,
  50, 62, 78,
  20, 24, 32,
  50, 62, 78,
  20, 24, 32,
  50, 62, 78,
  20, 24, 32,
  50, 62, 78,
  20, 24, 32,
  50, 62, 78,
  20, 24, 32,
  50, 62, 78,
  20, 24, 32,
  50, 62, 78,
  20, 24, 32,
  50, 62, 78,
  20, 24, 32,
  50, 62, 78,
  20, 24, 32,
  50, 62, 78,
  20, 24, 32,
  50, 62, 78,
  20, 24, 32,
  50, 62, 78,
  20, 24, 32,
  50, 62, 78,
  20, 24, 32,
  50, 62, 78,
  20, 24, 32,
  50, 62, 78,
  20, 24, 32,
  50, 62, 78,
  20, 24, 32,
  50, 62, 78,
  20, 24, 32,
  50, 62, 78,
  20, 24, 32,
  50, 62, 78,
  20, 24, 32,
  50, 62, 78,
  20, 24, 32,
  50, 62, 78,
  20, 24, 32,
  50, 62, 78,
  20, 24, 32,
  50, 62, 78
]);

trans_cost = [5.52, 7.04, 9.24, 6.31, 5.53, 8.73, 8.73, 6.48, 6.59, 8.70, 3.66, 3.78, 5.84, 7.36, 8.93, 12.43, 10.57, 7.52, 7.94, 4.99, 7.94, 7.13, 8.97, 5.52, 9.56, 12.60, 7.67, 9.21, 10.07, 6.80, 8.67, 8.04, 8.29, 5.68, 8.07, 9.49, 12.35, 10.88, 14.46, 5.70, 10.62, 8.55, 14.57, 5.58, 5.48, 6.20, 1.63, 6.42, 5.72, 8.45];
